Version identifier: 22.1.1.0 | 2022-11-28 | 9160aff4d
CPXPARAM_ClockType                               1
CPXPARAM_Read_DataCheck                          1
CPXPARAM_Threads                                 1
CPXPARAM_TimeLimit                               7200
CPXPARAM_MIP_Tolerances_AbsMIPGap                0
CPXPARAM_MIP_Tolerances_MIPGap                   0
CPXPARAM_MIP_Tolerances_Integrality              0
Tried aggregator 5 times.
MIP Presolve eliminated 5150 rows and 1686 columns.
MIP Presolve modified 2 coefficients.
Aggregator did 437 substitutions.
Reduced MIP has 1660 rows, 949 columns, and 4642 nonzeros.
Reduced MIP has 949 binaries, 0 generals, 0 SOSs, and 0 indicators.
Presolve time = 0.02 sec. (11.57 ticks)
Found incumbent of value 0.000000 after 0.02 sec. (13.30 ticks)
Probing time = 0.00 sec. (2.91 ticks)
Tried aggregator 1 time.
Detecting symmetries...
MIP Presolve eliminated 9 rows and 5 columns.
MIP Presolve modified 4 coefficients.
Reduced MIP has 1651 rows, 944 columns, and 4613 nonzeros.
Reduced MIP has 944 binaries, 0 generals, 0 SOSs, and 0 indicators.
Presolve time = 0.01 sec. (5.09 ticks)
Probing time = 0.01 sec. (2.75 ticks)
Clique table members: 3302.
MIP emphasis: balance optimality and feasibility.
MIP search method: dynamic search.
Parallel mode: none, using 1 thread.
Root relaxation solution time = 0.01 sec. (2.15 ticks)

        Nodes                                         Cuts/
   Node  Left     Objective  IInf  Best Integer    Best Bound    ItCnt     Gap

*     0+    0                            0.0000      190.0000              --- 
      0     0      190.0000   162        0.0000      190.0000       27     --- 
*     0+    0                          190.0000      190.0000             0.00%
      0     0        cutoff            190.0000      190.0000       27    0.00%
Elapsed time = 0.05 sec. (30.79 ticks, tree = 0.01 MB, solutions = 2)

Root node processing (before b&c):
  Real time             =    0.05 sec. (30.90 ticks)
Sequential b&c:
  Real time             =    0.00 sec. (0.00 ticks)
                          ------------
Total (root+branch&cut) =    0.05 sec. (30.90 ticks)
Solution is feasible.

---------------------
@@@ MIP_optimal
>>> Benchmark mc2024_track1_180.cnf k 2 OPT 190 TimeCost 0.536513090133667 TimeSolve 0.052899837493896484 TimeRead 0.005654573440551758 TimeTrans 0.47795867919921875
